networks/zoo_226_5064/zoo_226_5064-lower.txt
Number of groups: 101
Flow 1: {1 64 0} {64 86 0} {86 63 0} {63 7 0} {7 120 0} 
Flow 2: {1 9 0} {9 87 0} {87 4 0} {4 48 0} {48 61 0} {61 105 0} {105 11 0} {11 14 0} {14 127 0} 
Flow 3: {105 17 0} {17 130 0} 
Flow 4: {105 20 0} {20 133 0} 
Flow 5: {4 89 0} {89 94 0} {94 95 0} {95 96 0} {96 25 0} {27 22 0} {22 21 0} {21 134 0} 
Flow 5: {25 26 0} {26 27 0} Flow 6: {22 135 0} 
Flow 7: {26 139 0} 
Flow 8: {93 30 0} {30 143 0} 
Flow 8: {48 52 0} {52 51 0} {51 92 0} {92 93 0} Flow 9: {7 82 0} {82 78 0} {78 31 0} {31 144 0} 
Flow 10: {20 19 0} {19 36 0} {36 35 0} {35 33 0} {33 146 0} 
Flow 11: {4 46 0} {46 44 0} {44 157 0} 
Flow 12: {48 161 0} 
Flow 13: {48 85 0} {85 50 0} {50 163 0} 
Flow 14: {51 164 0} 
Flow 15: {61 54 0} {54 167 0} 
Flow 16: {48 112 0} {112 56 0} {56 169 0} 
Flow 17: {25 28 0} {28 84 0} {84 83 0} {83 62 0} {62 59 0} {59 172 0} 
Flow 18: {61 174 0} 
Flow 19: {63 176 0} 
Flow 20: {64 177 0} 
Flow 21: {1 65 0} {65 178 0} 
Flow 22: {65 67 0} {67 180 0} 
Flow 23: {64 71 0} {71 184 0} 
Flow 24: {82 73 0} {73 186 0} 
Flow 25: {73 76 0} {76 189 0} 
Flow 26: {76 77 0} {77 190 0} 
Flow 27: {78 191 0} 
Flow 28: {82 195 0} 
Flow 29: {83 196 0} 
Flow 30: {85 198 0} 
Flow 31: {87 200 0} 
Flow 32: {92 205 0} 
Flow 33: {93 206 0} 
Flow 34: {95 208 0} 
Flow 35: {48 16 0} {16 98 0} {98 211 0} 
Flow 36: {48 74 0} {74 99 0} {99 212 0} 
Flow 37: {78 101 0} {101 214 0} 
Flow 38: {82 102 0} {102 215 0} 
Flow 39: {78 104 0} {104 217 0} 
Flow 40: {105 218 0} 
Flow 41: {59 111 0} {111 110 0} {110 223 0} 
Flow 42: {112 225 0} 
Flow 43: {2 1 0} {1 114 0} 
Flow 75: {3 88 0} {88 89 0} {89 4 0} {4 87 0} {87 9 0} {9 1 0} Flow 76: {4 5 0} {5 7 0} Flow 77: {5 8 0} {8 121 0} 
Flow 78: {3 56 0} {56 112 0} Flow 79: {112 48 0} Flow 80: {44 18 0} {18 131 0} 
Flow 81: {19 132 0} 
Flow 83: {56 55 0} {55 91 0} {91 90 0} {90 26 0} Flow 85: {21 24 0} {24 137 0} 
Flow 86: {25 138 0} 
Flow 86: {56 95 0} Flow 88: {28 141 0} 
Flow 89: {26 29 0} {29 30 0} Flow 91: {113 32 0} {32 145 0} 
Flow 91: {99 100 0} {100 113 0} Flow 93: {35 148 0} 
Flow 94: {33 34 0} {34 39 0} {39 152 0} 
Flow 96: {46 159 0} 
Flow 98: {55 50 0} Flow 99: {55 57 0} {57 58 0} {58 51 0} Flow 103: {61 60 0} {60 173 0} 
Flow 105: {7 63 0} Flow 106: {9 64 0} Flow 108: {63 86 0} {86 67 0} Flow 109: {63 71 0} {71 72 0} {72 69 0} {69 182 0} 
Flow 110: {67 70 0} {70 183 0} 
Flow 112: {74 73 0} Flow 113: {74 187 0} 
Flow 117: {7 81 0} {81 194 0} 
Flow 120: {50 85 0} Flow 123: {26 93 0} Flow 124: {94 207 0} 
Flow 130: {102 103 0} {103 216 0} 
Flow 133: {24 106 0} {106 219 0} 
Flow 134: {106 107 0} {107 220 0} 
Flow 135: {107 108 0} {108 221 0} 
Flow 139: {1 2 0} {2 115 0} 
Flow 140: {89 88 0} {88 3 0} {3 116 0} 
Flow 141: {5 118 0} 
Flow 142: {5 6 0} {6 119 0} 
Flow 145: {1 10 0} {10 123 0} 
Flow 146: {11 124 0} 
Flow 147: {105 12 0} {12 125 0} 
Flow 148: {20 13 0} {13 126 0} 
Flow 150: {16 129 0} 
Flow 157: {84 23 0} {23 136 0} 
Flow 161: {27 140 0} 
Flow 163: {29 142 0} 
Flow 166: {31 32 0} Flow 168: {34 147 0} 
Flow 170: {36 149 0} 
Flow 171: {20 37 0} {37 150 0} 
Flow 172: {20 38 0} {38 151 0} 
Flow 174: {50 41 0} {41 154 0} 
Flow 175: {44 43 0} {43 42 0} {42 155 0} 
Flow 176: {43 156 0} 
Flow 178: {48 45 0} {45 158 0} 
Flow 180: {48 47 0} {47 160 0} 
Flow 182: {50 49 0} {49 162 0} 
Flow 185: {51 53 0} {53 166 0} 
Flow 188: {57 170 0} 
Flow 188: {112 55 0} Flow 196: {65 68 0} {68 181 0} 
Flow 202: {76 75 0} {75 188 0} 
Flow 206: {103 80 0} {80 193 0} 
Flow 210: {84 197 0} 
Flow 213: {88 201 0} 
Flow 214: {89 202 0} 
Flow 219: {96 209 0} 
Flow 230: {110 109 0} {109 222 0} 
Flow 233: {113 226 0} 
Flow 234: {5 87 0} Flow 236: {5 4 0} Flow 275: {6 5 0} Flow 278: {6 47 0} {47 48 0} Flow 283: {93 26 0} Flow 330: {7 5 0} Flow 332: {4 117 0} 
Flow 335: {76 105 0} Flow 375: {71 64 0} Flow 376: {67 65 0} Flow 378: {67 68 0} Flow 383: {73 74 0} Flow 412: {75 113 0} Flow 413: {8 9 0} Flow 414: {8 5 0} Flow 483: {9 8 0} Flow 556: {10 1 0} Flow 557: {10 64 0} Flow 598: {63 81 0} Flow 619: {11 105 0} {48 4 0} Flow 620: {105 76 0} {76 73 0} {73 82 0} {82 7 0} Flow 621: {105 61 0} {61 48 0} Flow 623: {11 17 0} Flow 624: {85 15 0} {15 18 0} Flow 633: {37 31 0} Flow 634: {37 32 0} Flow 659: {31 78 0} Flow 669: {61 98 0} Flow 670: {105 100 0} {100 99 0} Flow 671: {77 101 0} Flow 673: {101 103 0} Flow 674: {75 104 0} Flow 681: {12 105 0} Flow 682: {56 3 0} Flow 687: {12 11 0} Flow 688: {12 14 0} {14 13 0} Flow 691: {12 17 0} Flow 710: {41 42 0} Flow 765: {13 20 0} {20 105 0} Flow 768: {13 14 0} Flow 812: {31 104 0} Flow 817: {14 11 0} Flow 894: {15 85 0} {85 48 0} Flow 901: {17 105 0} Flow 907: {17 11 0} Flow 979: {18 44 0} {44 46 0} {46 4 0} Flow 981: {18 15 0} Flow 1000: {19 20 0} Flow 1079: {21 22 0} {22 27 0} {27 26 0} {26 25 0} {25 96 0} {96 95 0} {95 94 0} {94 89 0} Flow 1080: {95 56 0} Flow 1085: {26 90 0} {90 91 0} {91 55 0} {55 112 0} Flow 1098: {21 23 0} {23 84 0} {84 28 0} Flow 1108: {42 43 0} Flow 1115: {93 92 0} {92 51 0} Flow 1116: {53 54 0} Flow 1118: {106 59 0} Flow 1119: {54 60 0} Flow 1160: {28 25 0} Flow 1250: {47 6 0} Flow 1349: {29 26 0} Flow 1411: {30 93 0} {51 52 0} {52 48 0} Flow 1415: {54 61 0} Flow 1420: {30 29 0} Flow 1478: {78 82 0} Flow 1480: {31 37 0} {37 20 0} Flow 1486: {64 10 0} Flow 1491: {32 113 0} {113 100 0} {99 98 0} {98 16 0} Flow 1524: {54 53 0} Flow 1541: {104 75 0} Flow 1542: {75 76 0} Flow 1543: {101 77 0} Flow 1569: {108 109 0} Flow 1573: {99 74 0} {74 48 0} Flow 1574: {100 105 0} Flow 1575: {33 35 0} {35 36 0} {36 19 0} Flow 1602: {34 33 0} Flow 1727: {38 20 0} Flow 1729: {38 32 0} {32 31 0} Flow 1774: {113 75 0} Flow 1801: {39 34 0} Flow 1857: {40 39 0} Flow 1860: {41 50 0} Flow 1867: {43 44 0} Flow 1870: {42 41 0} Flow 1875: {50 55 0} Flow 1878: {49 58 0} Flow 1887: {55 56 0} Flow 2047: {45 48 0} Flow 2206: {49 50 0} Flow 2242: {51 58 0} {58 49 0} Flow 2244: {58 57 0} {57 55 0} Flow 2316: {53 51 0} Flow 2368: {98 99 0} Flow 2682: {59 62 0} {62 83 0} {83 84 0} Flow 2688: {106 24 0} {24 21 0} {59 106 0} Flow 2827: {90 203 0} 
Flow 2845: {111 224 0} 
Flow 2872: {64 1 0} Flow 2964: {64 9 0} Flow 2975: {65 1 0} Flow 2979: {67 86 0} Flow 3028: {70 69 0} Flow 3064: {66 2 0} Flow 3065: {66 65 0} Flow 3167: {86 64 0} Flow 3206: {68 65 0} Flow 3208: {68 67 0} Flow 3270: {69 70 0} {70 67 0} Flow 3271: {69 72 0} {72 71 0} {71 63 0} Flow 3576: {104 31 0} Flow 3643: {77 76 0} Flow 3659: {101 78 0} Flow 3699: {103 102 0} Flow 3708: {79 102 0} {102 82 0} Flow 3719: {80 103 0} Flow 3722: {103 101 0} Flow 3782: {81 63 0} Flow 3783: {81 7 0} Flow 3872: {32 38 0} Flow 3887: {55 168 0} 
Flow 3923: {100 213 0} 
Flow 3961: {23 21 0} Flow 4129: {87 5 0} Flow 4261: {90 97 0} {97 96 0} Flow 4490: {97 90 0} Flow 4569: {98 61 0} Flow 4834: {107 106 0} Flow 4895: {109 110 0} Flow 4897: {108 107 0} Flow 4899: {110 111 0} {111 59 0} Flow 4900: {109 108 0} Flow 4996: {32 37 0} Time taken running everything: 1 seconds
