networks/zoo_226_5064/zoo_226_5064-lower.sol
<?xml version = "1.0" encoding="UTF-8" standalone="yes"?>
<CPLEXSolution version="1.2">
 <header
   problemName="networks/zoo_226_5064/zoo_226_5064-lower.lp"
   solutionName="incumbent"
   solutionIndex="-1"
   objectiveValue="101"
   solutionTypeValue="3"
   solutionTypeString="primal"
   solutionStatusValue="101"
   solutionStatusString="integer optimal solution"
   solutionMethodString="mip"
   primalFeasible="1"
   dualFeasible="1"
   MIPNodes="0"
   MIPIterations="0"
   writeLevel="3"/>
 <quality
   epInt="1.0000000000000001e-05"
   epRHS="9.9999999999999995e-07"
   maxIntInfeas="0"
   maxPrimalInfeas="0"
   maxX="1"
   maxSlack="1"/>
 <variables>
  <variable name="Y(1,7)" index="6" value="1"/>
  <variable name="Y(2,14)" index="227" value="1"/>
  <variable name="Y(3,17)" index="444" value="1"/>
  <variable name="Y(4,20)" index="661" value="1"/>
  <variable name="Y(5,21)" index="876" value="1"/>
  <variable name="Y(6,22)" index="1091" value="1"/>
  <variable name="Y(7,26)" index="1309" value="1"/>
  <variable name="Y(8,30)" index="1527" value="1"/>
  <variable name="Y(9,31)" index="1742" value="1"/>
  <variable name="Y(10,33)" index="1958" value="1"/>
  <variable name="Y(11,44)" index="2183" value="1"/>
  <variable name="Y(12,48)" index="2401" value="1"/>
  <variable name="Y(13,50)" index="2617" value="1"/>
  <variable name="Y(14,51)" index="2832" value="1"/>
  <variable name="Y(15,54)" index="3049" value="1"/>
  <variable name="Y(16,56)" index="3265" value="1"/>
  <variable name="Y(17,59)" index="3482" value="1"/>
  <variable name="Y(18,61)" index="3698" value="1"/>
  <variable name="Y(19,63)" index="3914" value="1"/>
  <variable name="Y(20,64)" index="4129" value="1"/>
  <variable name="Y(21,65)" index="4344" value="1"/>
  <variable name="Y(22,67)" index="4560" value="1"/>
  <variable name="Y(23,71)" index="4778" value="1"/>
  <variable name="Y(24,73)" index="4994" value="1"/>
  <variable name="Y(25,76)" index="5211" value="1"/>
  <variable name="Y(26,77)" index="5426" value="1"/>
  <variable name="Y(27,78)" index="5641" value="1"/>
  <variable name="Y(28,82)" index="5859" value="1"/>
  <variable name="Y(29,83)" index="6074" value="1"/>
  <variable name="Y(30,85)" index="6290" value="1"/>
  <variable name="Y(31,87)" index="6506" value="1"/>
  <variable name="Y(32,92)" index="6725" value="1"/>
  <variable name="Y(33,93)" index="6940" value="1"/>
  <variable name="Y(34,95)" index="7156" value="1"/>
  <variable name="Y(35,98)" index="7373" value="1"/>
  <variable name="Y(36,99)" index="7588" value="1"/>
  <variable name="Y(37,101)" index="7804" value="1"/>
  <variable name="Y(38,102)" index="8019" value="1"/>
  <variable name="Y(39,104)" index="8235" value="1"/>
  <variable name="Y(40,105)" index="8450" value="1"/>
  <variable name="Y(41,110)" index="8669" value="1"/>
  <variable name="Y(42,112)" index="8885" value="1"/>
  <variable name="Y(43,1)" index="8988" value="1"/>
  <variable name="Y(77,8)" index="16271" value="1"/>
  <variable name="Y(80,18)" index="16923" value="1"/>
  <variable name="Y(81,19)" index="17138" value="1"/>
  <variable name="Y(85,24)" index="17999" value="1"/>
  <variable name="Y(86,25)" index="18214" value="1"/>
  <variable name="Y(88,28)" index="18645" value="1"/>
  <variable name="Y(91,32)" index="19291" value="1"/>
  <variable name="Y(93,35)" index="19722" value="1"/>
  <variable name="Y(94,39)" index="19940" value="1"/>
  <variable name="Y(96,46)" index="20375" value="1"/>
  <variable name="Y(103,60)" index="21887" value="1"/>
  <variable name="Y(109,69)" index="23180" value="1"/>
  <variable name="Y(110,70)" index="23395" value="1"/>
  <variable name="Y(113,74)" index="24041" value="1"/>
  <variable name="Y(117,81)" index="24904" value="1"/>
  <variable name="Y(124,94)" index="26415" value="1"/>
  <variable name="Y(130,103)" index="27708" value="1"/>
  <variable name="Y(133,106)" index="28353" value="1"/>
  <variable name="Y(134,107)" index="28568" value="1"/>
  <variable name="Y(135,108)" index="28783" value="1"/>
  <variable name="Y(139,2)" index="29533" value="1"/>
  <variable name="Y(140,3)" index="29748" value="1"/>
  <variable name="Y(141,5)" index="29964" value="1"/>
  <variable name="Y(142,6)" index="30179" value="1"/>
  <variable name="Y(145,10)" index="30825" value="1"/>
  <variable name="Y(146,11)" index="31040" value="1"/>
  <variable name="Y(147,12)" index="31255" value="1"/>
  <variable name="Y(148,13)" index="31470" value="1"/>
  <variable name="Y(150,16)" index="31901" value="1"/>
  <variable name="Y(157,23)" index="33406" value="1"/>
  <variable name="Y(161,27)" index="34266" value="1"/>
  <variable name="Y(163,29)" index="34696" value="1"/>
  <variable name="Y(168,34)" index="35771" value="1"/>
  <variable name="Y(170,36)" index="36201" value="1"/>
  <variable name="Y(171,37)" index="36416" value="1"/>
  <variable name="Y(172,38)" index="36631" value="1"/>
  <variable name="Y(174,41)" index="37062" value="1"/>
  <variable name="Y(175,42)" index="37277" value="1"/>
  <variable name="Y(176,43)" index="37492" value="1"/>
  <variable name="Y(178,45)" index="37922" value="1"/>
  <variable name="Y(180,47)" index="38352" value="1"/>
  <variable name="Y(182,49)" index="38782" value="1"/>
  <variable name="Y(185,53)" index="39428" value="1"/>
  <variable name="Y(188,57)" index="40074" value="1"/>
  <variable name="Y(196,68)" index="41797" value="1"/>
  <variable name="Y(202,75)" index="43088" value="1"/>
  <variable name="Y(206,80)" index="43949" value="1"/>
  <variable name="Y(210,84)" index="44809" value="1"/>
  <variable name="Y(213,88)" index="45455" value="1"/>
  <variable name="Y(214,89)" index="45670" value="1"/>
  <variable name="Y(219,96)" index="46747" value="1"/>
  <variable name="Y(230,109)" index="49114" value="1"/>
  <variable name="Y(233,113)" index="49760" value="1"/>
  <variable name="Y(332,4)" index="70837" value="1"/>
  <variable name="Y(2827,90)" index="604853" value="1"/>
  <variable name="Y(2845,111)" index="608726" value="1"/>
  <variable name="Y(3887,55)" index="831658" value="1"/>
  <variable name="Y(3923,100)" index="839407" value="1"/>
  <variable name="X(1,2,139)" index="1083834" value="1"/>
  <variable name="X(1,9,2)" index="1088761" value="1"/>
  <variable name="X(1,10,145)" index="1093968" value="1"/>
  <variable name="X(1,64,1)" index="1098888" value="1"/>
  <variable name="X(1,65,21)" index="1103972" value="1"/>
  <variable name="X(1,114,43)" index="1109058" value="1"/>
  <variable name="X(2,1,43)" index="1114122" value="1"/>
  <variable name="X(2,115,139)" index="1119282" value="1"/>
  <variable name="X(3,56,78)" index="1124285" value="1"/>
  <variable name="X(3,88,75)" index="1129346" value="1"/>
  <variable name="X(3,116,140)" index="1134475" value="1"/>
  <variable name="X(4,5,76)" index="1139475" value="1"/>
  <variable name="X(4,46,11)" index="1144474" value="1"/>
  <variable name="X(4,48,2)" index="1149529" value="1"/>
  <variable name="X(4,87,75)" index="1154666" value="1"/>
  <variable name="X(4,89,5)" index="1159660" value="1"/>
  <variable name="X(4,117,332)" index="1165051" value="1"/>
  <variable name="X(5,4,236)" index="1170019" value="1"/>
  <variable name="X(5,6,142)" index="1174989" value="1"/>
  <variable name="X(5,7,76)" index="1179987" value="1"/>
  <variable name="X(5,8,77)" index="1185052" value="1"/>
  <variable name="X(5,87,234)" index="1190273" value="1"/>
  <variable name="X(5,118,141)" index="1195244" value="1"/>
  <variable name="X(6,5,275)" index="1200442" value="1"/>
  <variable name="X(6,47,278)" index="1205509" value="1"/>
  <variable name="X(6,119,142)" index="1210437" value="1"/>
  <variable name="X(7,5,330)" index="1215689" value="1"/>
  <variable name="X(7,63,105)" index="1220528" value="1"/>
  <variable name="X(7,81,117)" index="1225604" value="1"/>
  <variable name="X(7,82,9)" index="1230560" value="1"/>
  <variable name="X(7,120,1)" index="1235616" value="1"/>
  <variable name="X(8,5,414)" index="1241093" value="1"/>
  <variable name="X(8,9,413)" index="1246156" value="1"/>
  <variable name="X(8,121,77)" index="1250884" value="1"/>
  <variable name="X(9,1,75)" index="1255946" value="1"/>
  <variable name="X(9,8,483)" index="1261418" value="1"/>
  <variable name="X(9,64,106)" index="1266105" value="1"/>
  <variable name="X(9,87,2)" index="1271065" value="1"/>
  <variable name="X(10,1,556)" index="1276683" value="1"/>
  <variable name="X(10,64,557)" index="1281748" value="1"/>
  <variable name="X(10,123,145)" index="1286400" value="1"/>
  <variable name="X(11,14,2)" index="1291321" value="1"/>
  <variable name="X(11,17,623)" index="1297006" value="1"/>
  <variable name="X(11,105,619)" index="1302066" value="1"/>
  <variable name="X(11,124,146)" index="1306657" value="1"/>
  <variable name="X(12,11,687)" index="1312262" value="1"/>
  <variable name="X(12,14,688)" index="1317327" value="1"/>
  <variable name="X(12,17,691)" index="1322394" value="1"/>
  <variable name="X(12,105,681)" index="1327448" value="1"/>
  <variable name="X(12,125,147)" index="1331978" value="1"/>
  <variable name="X(13,14,768)" index="1337663" value="1"/>
  <variable name="X(13,20,765)" index="1342724" value="1"/>
  <variable name="X(13,126,148)" index="1347171" value="1"/>
  <variable name="X(14,11,817)" index="1352904" value="1"/>
  <variable name="X(14,13,688)" index="1357839" value="1"/>
  <variable name="X(14,127,2)" index="1362217" value="1"/>
  <variable name="X(15,18,624)" index="1367903" value="1"/>
  <variable name="X(15,85,894)" index="1373237" value="1"/>
  <variable name="X(16,98,35)" index="1377442" value="1"/>
  <variable name="X(16,129,150)" index="1382621" value="1"/>
  <variable name="X(17,11,907)" index="1388442" value="1"/>
  <variable name="X(17,105,901)" index="1393500" value="1"/>
  <variable name="X(17,130,3)" index="1397666" value="1"/>
  <variable name="X(18,15,981)" index="1403708" value="1"/>
  <variable name="X(18,44,979)" index="1408770" value="1"/>
  <variable name="X(18,131,80)" index="1412935" value="1"/>
  <variable name="X(19,20,1000)" index="1418919" value="1"/>
  <variable name="X(19,36,10)" index="1422993" value="1"/>
  <variable name="X(19,132,81)" index="1428128" value="1"/>
  <variable name="X(20,13,148)" index="1433259" value="1"/>
  <variable name="X(20,19,10)" index="1438185" value="1"/>
  <variable name="X(20,37,171)" index="1443410" value="1"/>
  <variable name="X(20,38,172)" index="1448475" value="1"/>
  <variable name="X(20,105,765)" index="1454132" value="1"/>
  <variable name="X(20,133,4)" index="1458435" value="1"/>
  <variable name="X(21,22,1079)" index="1464574" value="1"/>
  <variable name="X(21,23,1098)" index="1469657" value="1"/>
  <variable name="X(21,24,85)" index="1473708" value="1"/>
  <variable name="X(21,134,5)" index="1478692" value="1"/>
  <variable name="X(22,21,5)" index="1483756" value="1"/>
  <variable name="X(22,27,1079)" index="1489894" value="1"/>
  <variable name="X(22,135,6)" index="1493885" value="1"/>
  <variable name="X(23,21,3961)" index="1502904" value="1"/>
  <variable name="X(23,84,1098)" index="1505105" value="1"/>
  <variable name="X(23,136,157)" index="1509228" value="1"/>
  <variable name="X(24,21,2688)" index="1516823" value="1"/>
  <variable name="X(24,106,133)" index="1519332" value="1"/>
  <variable name="X(24,137,85)" index="1524348" value="1"/>
  <variable name="X(25,26,5)" index="1529332" value="1"/>
  <variable name="X(25,28,17)" index="1534408" value="1"/>
  <variable name="X(25,96,1079)" index="1540534" value="1"/>
  <variable name="X(25,138,86)" index="1544605" value="1"/>
  <variable name="X(26,25,1079)" index="1550662" value="1"/>
  <variable name="X(26,27,5)" index="1554652" value="1"/>
  <variable name="X(26,29,89)" index="1559800" value="1"/>
  <variable name="X(26,90,1085)" index="1565860" value="1"/>
  <variable name="X(26,93,123)" index="1569962" value="1"/>
  <variable name="X(26,139,7)" index="1574910" value="1"/>
  <variable name="X(27,22,5)" index="1579972" value="1"/>
  <variable name="X(27,26,1079)" index="1586110" value="1"/>
  <variable name="X(27,140,161)" index="1590256" value="1"/>
  <variable name="X(28,25,1160)" index="1596319" value="1"/>
  <variable name="X(28,84,17)" index="1600240" value="1"/>
  <variable name="X(28,141,88)" index="1605375" value="1"/>
  <variable name="X(29,26,1349)" index="1611700" value="1"/>
  <variable name="X(29,30,89)" index="1615504" value="1"/>
  <variable name="X(29,142,163)" index="1620642" value="1"/>
  <variable name="X(30,29,1420)" index="1626963" value="1"/>
  <variable name="X(30,93,1411)" index="1632018" value="1"/>
  <variable name="X(30,143,8)" index="1635679" value="1"/>
  <variable name="X(31,32,166)" index="1640901" value="1"/>
  <variable name="X(31,37,1480)" index="1647279" value="1"/>
  <variable name="X(31,78,659)" index="1651522" value="1"/>
  <variable name="X(31,104,812)" index="1656739" value="1"/>
  <variable name="X(31,144,9)" index="1661000" value="1"/>
  <variable name="X(32,31,1729)" index="1667784" value="1"/>
  <variable name="X(32,37,4996)" index="1676115" value="1"/>
  <variable name="X(32,38,3872)" index="1680055" value="1"/>
  <variable name="X(32,113,1491)" index="1682738" value="1"/>
  <variable name="X(32,145,91)" index="1686402" value="1"/>
  <variable name="X(33,34,94)" index="1691469" value="1"/>
  <variable name="X(33,35,1575)" index="1698014" value="1"/>
  <variable name="X(33,146,10)" index="1701513" value="1"/>
  <variable name="X(34,33,1602)" index="1708169" value="1"/>
  <variable name="X(34,39,94)" index="1711725" value="1"/>
  <variable name="X(34,147,168)" index="1716863" value="1"/>
  <variable name="X(35,33,10)" index="1721769" value="1"/>
  <variable name="X(35,36,1575)" index="1728398" value="1"/>
  <variable name="X(35,148,93)" index="1731980" value="1"/>
  <variable name="X(36,19,1575)" index="1738526" value="1"/>
  <variable name="X(36,35,10)" index="1742025" value="1"/>
  <variable name="X(36,149,170)" index="1747249" value="1"/>
  <variable name="X(37,20,1480)" index="1753623" value="1"/>
  <variable name="X(37,31,633)" index="1757840" value="1"/>
  <variable name="X(37,32,634)" index="1762905" value="1"/>
  <variable name="X(37,150,171)" index="1767506" value="1"/>
  <variable name="X(38,20,1727)" index="1774126" value="1"/>
  <variable name="X(38,32,1729)" index="1779192" value="1"/>
  <variable name="X(38,151,172)" index="1782699" value="1"/>
  <variable name="X(39,34,1801)" index="1789392" value="1"/>
  <variable name="X(39,152,94)" index="1792749" value="1"/>
  <variable name="X(40,39,1857)" index="1799576" value="1"/>
  <variable name="X(41,42,710)" index="1803493" value="1"/>
  <variable name="X(41,50,1860)" index="1809707" value="1"/>
  <variable name="X(41,154,174)" index="1813085" value="1"/>
  <variable name="X(42,41,1870)" index="1819845" value="1"/>
  <variable name="X(42,43,1108)" index="1824147" value="1"/>
  <variable name="X(42,155,175)" index="1828278" value="1"/>
  <variable name="X(43,42,175)" index="1833342" value="1"/>
  <variable name="X(43,44,1867)" index="1840098" value="1"/>
  <variable name="X(43,156,176)" index="1843471" value="1"/>
  <variable name="X(44,18,80)" index="1848439" value="1"/>
  <variable name="X(44,43,175)" index="1853598" value="1"/>
  <variable name="X(44,46,979)" index="1859466" value="1"/>
  <variable name="X(44,157,11)" index="1863562" value="1"/>
  <variable name="X(45,48,2047)" index="1870662" value="1"/>
  <variable name="X(45,158,178)" index="1873857" value="1"/>
  <variable name="X(46,4,979)" index="1879722" value="1"/>
  <variable name="X(46,44,11)" index="1883818" value="1"/>
  <variable name="X(46,159,96)" index="1888967" value="1"/>
  <variable name="X(47,6,1250)" index="1895185" value="1"/>
  <variable name="X(47,48,278)" index="1899277" value="1"/>
  <variable name="X(47,160,180)" index="1904243" value="1"/>
  <variable name="X(48,4,619)" index="1909746" value="1"/>
  <variable name="X(48,16,35)" index="1914226" value="1"/>
  <variable name="X(48,45,178)" index="1919433" value="1"/>
  <variable name="X(48,47,180)" index="1924499" value="1"/>
  <variable name="X(48,52,8)" index="1929391" value="1"/>
  <variable name="X(48,61,2)" index="1934449" value="1"/>
  <variable name="X(48,74,36)" index="1939547" value="1"/>
  <variable name="X(48,85,13)" index="1944588" value="1"/>
  <variable name="X(48,112,16)" index="1949655" value="1"/>
  <variable name="X(48,161,12)" index="1954715" value="1"/>
  <variable name="X(49,50,2206)" index="1961973" value="1"/>
  <variable name="X(49,58,1878)" index="1966709" value="1"/>
  <variable name="X(49,162,182)" index="1970077" value="1"/>
  <variable name="X(50,41,174)" index="1975133" value="1"/>
  <variable name="X(50,49,182)" index="1980205" value="1"/>
  <variable name="X(50,55,1875)" index="1986962" value="1"/>
  <variable name="X(50,85,120)" index="1990271" value="1"/>
  <variable name="X(50,163,13)" index="1995228" value="1"/>
  <variable name="X(51,52,1411)" index="2001690" value="1"/>
  <variable name="X(51,53,185)" index="2005528" value="1"/>
  <variable name="X(51,58,2242)" index="2012649" value="1"/>
  <variable name="X(51,92,8)" index="2015479" value="1"/>
  <variable name="X(51,164,14)" index="2020549" value="1"/>
  <variable name="X(52,48,1411)" index="2027010" value="1"/>
  <variable name="X(52,51,8)" index="2030671" value="1"/>
  <variable name="X(53,51,2316)" index="2038043" value="1"/>
  <variable name="X(53,54,1116)" index="2041907" value="1"/>
  <variable name="X(53,166,185)" index="2046040" value="1"/>
  <variable name="X(54,53,1524)" index="2052443" value="1"/>
  <variable name="X(54,60,1119)" index="2057102" value="1"/>
  <variable name="X(54,61,1415)" index="2062462" value="1"/>
  <variable name="X(54,167,15)" index="2066126" value="1"/>
  <variable name="X(55,50,98)" index="2071273" value="1"/>
  <variable name="X(55,56,1887)" index="2078126" value="1"/>
  <variable name="X(55,57,99)" index="2081402" value="1"/>
  <variable name="X(55,91,83)" index="2086450" value="1"/>
  <variable name="X(55,112,1085)" index="2092516" value="1"/>
  <variable name="X(55,168,3887)" index="2100382" value="1"/>
  <variable name="X(56,3,682)" index="2102241" value="1"/>
  <variable name="X(56,55,83)" index="2106706" value="1"/>
  <variable name="X(56,95,86)" index="2111773" value="1"/>
  <variable name="X(56,112,78)" index="2116829" value="1"/>
  <variable name="X(56,169,16)" index="2121831" value="1"/>
  <variable name="X(57,55,2244)" index="2129123" value="1"/>
  <variable name="X(57,58,99)" index="2132042" value="1"/>
  <variable name="X(57,170,188)" index="2137195" value="1"/>
  <variable name="X(58,49,2242)" index="2144313" value="1"/>
  <variable name="X(58,51,99)" index="2147234" value="1"/>
  <variable name="X(58,57,2244)" index="2154443" value="1"/>
  <variable name="X(59,62,2682)" index="2159945" value="1"/>
  <variable name="X(59,106,2688)" index="2165015" value="1"/>
  <variable name="X(59,111,41)" index="2167432" value="1"/>
  <variable name="X(59,172,17)" index="2172472" value="1"/>
  <variable name="X(60,173,103)" index="2177622" value="1"/>
  <variable name="X(61,48,621)" index="2183204" value="1"/>
  <variable name="X(61,54,15)" index="2187662" value="1"/>
  <variable name="X(61,60,103)" index="2192814" value="1"/>
  <variable name="X(61,98,669)" index="2198444" value="1"/>
  <variable name="X(61,105,2)" index="2202841" value="1"/>
  <variable name="X(61,174,18)" index="2207921" value="1"/>
  <variable name="X(62,59,17)" index="2212984" value="1"/>
  <variable name="X(62,83,2682)" index="2220713" value="1"/>
  <variable name="X(63,7,1)" index="2223096" value="1"/>
  <variable name="X(63,71,109)" index="2228268" value="1"/>
  <variable name="X(63,81,598)" index="2233821" value="1"/>
  <variable name="X(63,86,108)" index="2238395" value="1"/>
  <variable name="X(63,176,19)" index="2243370" value="1"/>
  <variable name="X(64,1,2872)" index="2251287" value="1"/>
  <variable name="X(64,9,2964)" index="2256443" value="1"/>
  <variable name="X(64,10,1486)" index="2260029" value="1"/>
  <variable name="X(64,71,23)" index="2263630" value="1"/>
  <variable name="X(64,86,1)" index="2268672" value="1"/>
  <variable name="X(64,177,20)" index="2273755" value="1"/>
  <variable name="X(65,1,2975)" index="2281774" value="1"/>
  <variable name="X(65,67,22)" index="2283885" value="1"/>
  <variable name="X(65,68,196)" index="2289123" value="1"/>
  <variable name="X(65,178,21)" index="2294012" value="1"/>
  <variable name="X(66,2,3064)" index="2302119" value="1"/>
  <variable name="X(66,65,3065)" index="2307184" value="1"/>
  <variable name="X(67,65,376)" index="2309559" value="1"/>
  <variable name="X(67,68,378)" index="2314625" value="1"/>
  <variable name="X(67,70,110)" index="2319421" value="1"/>
  <variable name="X(67,86,2979)" index="2327354" value="1"/>
  <variable name="X(67,180,22)" index="2329461" value="1"/>
  <variable name="X(68,65,3206)" index="2337709" value="1"/>
  <variable name="X(68,67,3208)" index="2342775" value="1"/>
  <variable name="X(68,181,196)" index="2344827" value="1"/>
  <variable name="X(69,70,3270)" index="2352965" value="1"/>
  <variable name="X(69,72,3271)" index="2358030" value="1"/>
  <variable name="X(69,182,109)" index="2359932" value="1"/>
  <variable name="X(70,67,3270)" index="2368157" value="1"/>
  <variable name="X(70,69,3028)" index="2372979" value="1"/>
  <variable name="X(70,183,110)" index="2375125" value="1"/>
  <variable name="X(71,63,3271)" index="2383350" value="1"/>
  <variable name="X(71,64,375)" index="2385518" value="1"/>
  <variable name="X(71,72,109)" index="2390316" value="1"/>
  <variable name="X(71,184,23)" index="2395294" value="1"/>
  <variable name="X(72,69,109)" index="2400444" value="1"/>
  <variable name="X(72,71,3271)" index="2408670" value="1"/>
  <variable name="X(73,74,383)" index="2410846" value="1"/>
  <variable name="X(73,76,25)" index="2415552" value="1"/>
  <variable name="X(73,82,620)" index="2421211" value="1"/>
  <variable name="X(73,186,24)" index="2425679" value="1"/>
  <variable name="X(74,48,1573)" index="2432292" value="1"/>
  <variable name="X(74,73,112)" index="2435895" value="1"/>
  <variable name="X(74,99,36)" index="2440883" value="1"/>
  <variable name="X(74,187,113)" index="2446024" value="1"/>
  <variable name="X(75,76,1542)" index="2452517" value="1"/>
  <variable name="X(75,104,674)" index="2456713" value="1"/>
  <variable name="X(75,113,412)" index="2461515" value="1"/>
  <variable name="X(75,188,202)" index="2466369" value="1"/>
  <variable name="X(76,73,620)" index="2471851" value="1"/>
  <variable name="X(76,75,202)" index="2476497" value="1"/>
  <variable name="X(76,77,26)" index="2481385" value="1"/>
  <variable name="X(76,105,335)" index="2486758" value="1"/>
  <variable name="X(76,189,25)" index="2491512" value="1"/>
  <variable name="X(77,76,3643)" index="2500194" value="1"/>
  <variable name="X(77,101,671)" index="2502286" value="1"/>
  <variable name="X(77,190,26)" index="2506705" value="1"/>
  <variable name="X(78,31,9)" index="2511752" value="1"/>
  <variable name="X(78,82,1478)" index="2518285" value="1"/>
  <variable name="X(78,101,37)" index="2521908" value="1"/>
  <variable name="X(78,104,39)" index="2526974" value="1"/>
  <variable name="X(78,191,27)" index="2532026" value="1"/>
  <variable name="X(79,102,3708)" index="2540771" value="1"/>
  <variable name="X(80,103,3719)" index="2545846" value="1"/>
  <variable name="X(80,193,206)" index="2547397" value="1"/>
  <variable name="X(81,7,3783)" index="2556038" value="1"/>
  <variable name="X(81,63,3782)" index="2561101" value="1"/>
  <variable name="X(81,194,117)" index="2562500" value="1"/>
  <variable name="X(82,7,620)" index="2568067" value="1"/>
  <variable name="X(82,73,24)" index="2572535" value="1"/>
  <variable name="X(82,78,9)" index="2577584" value="1"/>
  <variable name="X(82,102,38)" index="2582677" value="1"/>
  <variable name="X(82,195,28)" index="2587731" value="1"/>
  <variable name="X(83,62,17)" index="2592784" value="1"/>
  <variable name="X(83,84,2682)" index="2600513" value="1"/>
  <variable name="X(83,196,29)" index="2602924" value="1"/>
  <variable name="X(84,23,157)" index="2608116" value="1"/>
  <variable name="X(84,28,1098)" index="2614121" value="1"/>
  <variable name="X(84,83,17)" index="2618104" value="1"/>
  <variable name="X(84,197,210)" index="2623361" value="1"/>
  <variable name="X(85,15,624)" index="2628839" value="1"/>
  <variable name="X(85,48,894)" index="2634173" value="1"/>
  <variable name="X(85,50,13)" index="2638356" value="1"/>
  <variable name="X(85,198,30)" index="2643437" value="1"/>
  <variable name="X(86,63,1)" index="2648472" value="1"/>
  <variable name="X(86,64,3167)" index="2656702" value="1"/>
  <variable name="X(86,67,108)" index="2658707" value="1"/>
  <variable name="X(87,4,2)" index="2663665" value="1"/>
  <variable name="X(87,5,4129)" index="2672856" value="1"/>
  <variable name="X(87,9,75)" index="2673866" value="1"/>
  <variable name="X(87,200,31)" index="2678886" value="1"/>
  <variable name="X(88,3,140)" index="2684059" value="1"/>
  <variable name="X(88,89,75)" index="2689058" value="1"/>
  <variable name="X(88,201,213)" index="2694260" value="1"/>
  <variable name="X(89,4,75)" index="2699186" value="1"/>
  <variable name="X(89,88,140)" index="2704315" value="1"/>
  <variable name="X(89,94,5)" index="2709244" value="1"/>
  <variable name="X(89,202,214)" index="2714517" value="1"/>
  <variable name="X(90,26,83)" index="2719450" value="1"/>
  <variable name="X(90,91,1085)" index="2725516" value="1"/>
  <variable name="X(90,97,4261)" index="2733756" value="1"/>
  <variable name="X(90,203,2827)" index="2737386" value="1"/>
  <variable name="X(91,55,1085)" index="2740708" value="1"/>
  <variable name="X(91,90,83)" index="2744770" value="1"/>
  <variable name="X(92,51,1115)" index="2750866" value="1"/>
  <variable name="X(92,93,8)" index="2754823" value="1"/>
  <variable name="X(92,205,32)" index="2759911" value="1"/>
  <variable name="X(93,26,283)" index="2765226" value="1"/>
  <variable name="X(93,30,8)" index="2770015" value="1"/>
  <variable name="X(93,92,1115)" index="2776186" value="1"/>
  <variable name="X(93,206,33)" index="2780168" value="1"/>
  <variable name="X(94,89,1079)" index="2786278" value="1"/>
  <variable name="X(94,95,5)" index="2790268" value="1"/>
  <variable name="X(94,207,124)" index="2795451" value="1"/>
  <variable name="X(95,56,1080)" index="2801471" value="1"/>
  <variable name="X(95,94,1079)" index="2806534" value="1"/>
  <variable name="X(95,96,5)" index="2810524" value="1"/>
  <variable name="X(95,208,34)" index="2815617" value="1"/>
  <variable name="X(96,25,5)" index="2820652" value="1"/>
  <variable name="X(96,95,1079)" index="2826790" value="1"/>
  <variable name="X(96,209,219)" index="2830994" value="1"/>
  <variable name="X(97,90,4490)" index="2840329" value="1"/>
  <variable name="X(97,96,4261)" index="2845164" value="1"/>
  <variable name="X(98,16,1491)" index="2847458" value="1"/>
  <variable name="X(98,61,4569)" index="2855600" value="1"/>
  <variable name="X(98,99,2368)" index="2858463" value="1"/>
  <variable name="X(98,211,35)" index="2861194" value="1"/>
  <variable name="X(99,74,1573)" index="2867796" value="1"/>
  <variable name="X(99,98,1491)" index="2872778" value="1"/>
  <variable name="X(99,100,91)" index="2876442" value="1"/>
  <variable name="X(99,212,36)" index="2881451" value="1"/>
  <variable name="X(100,99,670)" index="2887149" value="1"/>
  <variable name="X(100,105,1574)" index="2893117" value="1"/>
  <variable name="X(100,113,91)" index="2896698" value="1"/>
  <variable name="X(100,213,3923)" index="2905594" value="1"/>
  <variable name="X(101,77,1543)" index="2908278" value="1"/>
  <variable name="X(101,78,3659)" index="2915458" value="1"/>
  <variable name="X(101,103,673)" index="2917536" value="1"/>
  <variable name="X(101,214,37)" index="2921964" value="1"/>
  <variable name="X(102,82,3708)" index="2930699" value="1"/>
  <variable name="X(102,103,130)" index="2932185" value="1"/>
  <variable name="X(102,215,38)" index="2937157" value="1"/>
  <variable name="X(103,80,206)" index="2942389" value="1"/>
  <variable name="X(103,101,3722)" index="2950969" value="1"/>
  <variable name="X(103,102,3699)" index="2956010" value="1"/>
  <variable name="X(103,216,130)" index="2957505" value="1"/>
  <variable name="X(104,31,3576)" index="2966015" value="1"/>
  <variable name="X(104,75,1541)" index="2969044" value="1"/>
  <variable name="X(104,217,39)" index="2972606" value="1"/>
  <variable name="X(105,11,2)" index="2977633" value="1"/>
  <variable name="X(105,12,147)" index="2982842" value="1"/>
  <variable name="X(105,17,3)" index="2987762" value="1"/>
  <variable name="X(105,20,4)" index="2992827" value="1"/>
  <variable name="X(105,61,621)" index="2998508" value="1"/>
  <variable name="X(105,76,620)" index="3003571" value="1"/>
  <variable name="X(105,100,670)" index="3008685" value="1"/>
  <variable name="X(105,218,40)" index="3013119" value="1"/>
  <variable name="X(106,24,2688)" index="3020831" value="1"/>
  <variable name="X(106,59,1118)" index="3024325" value="1"/>
  <variable name="X(106,107,134)" index="3028405" value="1"/>
  <variable name="X(106,219,133)" index="3033468" value="1"/>
  <variable name="X(107,106,4834)" index="3043233" value="1"/>
  <variable name="X(107,108,135)" index="3043598" value="1"/>
  <variable name="X(107,220,134)" index="3048661" value="1"/>
  <variable name="X(108,107,4897)" index="3058488" value="1"/>
  <variable name="X(108,109,1569)" index="3060224" value="1"/>
  <variable name="X(108,221,135)" index="3063854" value="1"/>
  <variable name="X(109,108,4900)" index="3073683" value="1"/>
  <variable name="X(109,110,4895)" index="3078742" value="1"/>
  <variable name="X(109,222,230)" index="3079141" value="1"/>
  <variable name="X(110,109,230)" index="3084205" value="1"/>
  <variable name="X(110,111,4899)" index="3093938" value="1"/>
  <variable name="X(110,223,41)" index="3094144" value="1"/>
  <variable name="X(111,59,4899)" index="3104066" value="1"/>
  <variable name="X(111,110,41)" index="3104272" value="1"/>
  <variable name="X(111,224,2845)" index="3112140" value="1"/>
  <variable name="X(112,48,79)" index="3114438" value="1"/>
  <variable name="X(112,55,188)" index="3119611" value="1"/>
  <variable name="X(112,56,16)" index="3124503" value="1"/>
  <variable name="X(112,225,42)" index="3129593" value="1"/>
  <variable name="X(113,32,91)" index="3134706" value="1"/>
  <variable name="X(113,75,1774)" index="3141453" value="1"/>
  <variable name="X(113,100,1491)" index="3146234" value="1"/>
  <variable name="X(113,226,233)" index="3150040" value="1"/>
 </variables>
</CPLEXSolution>
